language Essence 1.3

letting pain be
        [[tuple (tuple (tuple (1))), tuple (tuple (tuple (1))); int(3, 4)],
         [tuple (tuple (tuple (6))), tuple (tuple (tuple (6))); int(3, 4)]; int(1..2)]
